\ Model district
\ LP format - for model browsing. Use MPS format to capture full model detail.
Minimize
  0 x_0_0 + 0 x_0_1 + 0 x_1_0 + 0 x_1_1 + 0 x_2_0 + 0 x_2_1 + 0 x_3_0
   + 0 x_3_1 + 0 x_4_0 + 0 x_4_1 + 0 y_0_1_0 + 0 y_0_1_1 + 0 y_2_4_0
   + 0 y_2_4_1 + 0 y_1_2_0 + 0 y_1_2_1 + 0 y_3_4_0 + 0 y_3_4_1 + 0 y_0_3_0
   + 0 y_0_3_1 + 0 y_2_3_0 + 0 y_2_3_1 + 0 y_1_3_0 + 0 y_1_3_1 + 0 slack
   + 0 slack + 0 x_0_0 + 0 x_0_1 + 0 x_1_0 + 0 x_1_1 + 0 x_2_0 + 0 x_2_1
   + 0 x_3_0 + 0 x_3_1 + 0 x_4_0 + 0 x_4_1 + 0 y_0_0_0 + 0 y_0_0_1
   + 0 y_0_1_0 + 0 y_0_1_1 + 0 y_0_2_0 + 0 y_0_2_1 + 0 y_0_3_0 + 0 y_0_3_1
   + 0 y_0_4_0 + 0 y_0_4_1 + 0 y_1_0_0 + 0 y_1_0_1 + 0 y_1_1_0 + 0 y_1_1_1
   + 0 y_1_2_0 + 0 y_1_2_1 + 0 y_1_3_0 + 0 y_1_3_1 + 0 y_1_4_0 + 0 y_1_4_1
   + 0 y_2_0_0 + 0 y_2_0_1 + 0 y_2_1_0 + 0 y_2_1_1 + 0 y_2_2_0 + 0 y_2_2_1
   + 0 y_2_3_0 + 0 y_2_3_1 + 0 y_2_4_0 + 0 y_2_4_1 + 0 y_3_0_0 + 0 y_3_0_1
   + 0 y_3_1_0 + 0 y_3_1_1 + 0 y_3_2_0 + 0 y_3_2_1 + 0 y_3_3_0 + 0 y_3_3_1
   + 0 y_3_4_0 + 0 y_3_4_1 + 0 y_4_0_0 + 0 y_4_0_1 + 0 y_4_1_0 + 0 y_4_1_1
   + 0 y_4_2_0 + 0 y_4_2_1 + 0 y_4_3_0 + 0 y_4_3_1 + 0 y_4_4_0 + 0 y_4_4_1
   + 0 slack + 0 slack + 0 x_0_0 + 0 x_0_1 + 0 x_1_0 + 0 x_1_1 + 0 x_2_0
   + 0 x_2_1 + 0 x_3_0 + 0 x_3_1 + 0 x_4_0 + 0 x_4_1 + 0 y_0_1_0
   + 0 y_0_1_1 + 0 y_2_4_0 + 0 y_2_4_1 + 0 y_1_2_0 + 0 y_1_2_1 + 0 y_3_4_0
   + 0 y_3_4_1 + 0 y_0_3_0 + 0 y_0_3_1 + 0 y_2_3_0 + 0 y_2_3_1 + 0 y_1_3_0
   + 0 y_1_3_1 + 0 slack + 0 slack + 0 x_0_0 + 0 x_0_1 + 0 x_1_0 + 0 x_1_1
   + 0 x_2_0 + 0 x_2_1 + 0 x_3_0 + 0 x_3_1 + 0 x_4_0 + 0 x_4_1 + 0 y_0_1_0
   + 0 y_0_1_1 + 0 y_2_4_0 + 0 y_2_4_1 + 0 y_1_2_0 + 0 y_1_2_1 + 0 y_3_4_0
   + 0 y_3_4_1 + 0 y_0_3_0 + 0 y_0_3_1 + 0 y_2_3_0 + 0 y_2_3_1 + 0 y_1_3_0
   + 0 y_1_3_1 + 0 slack + 0 slack + 31 y_0_1_0 + 31 y_0_1_1 + 31 y_2_4_0
   + 31 y_2_4_1 + 23 y_1_2_0 + 23 y_1_2_1 + 31 y_3_4_0 + 31 y_3_4_1
   + 22 y_0_3_0 + 22 y_0_3_1 + 31 y_2_3_0 + 31 y_2_3_1 + 25 y_1_3_0
   + 25 y_1_3_1 + slack + slack
Subject To
 R0: x_0_0 + x_1_0 - 2 y_0_1_0 <= 0
 R1: x_0_1 + x_1_1 - 2 y_0_1_1 <= 0
 R2: x_2_0 + x_4_0 - 2 y_2_4_0 <= 0
 R3: x_2_1 + x_4_1 - 2 y_2_4_1 <= 0
 R4: x_1_0 + x_2_0 - 2 y_1_2_0 <= 0
 R5: x_1_1 + x_2_1 - 2 y_1_2_1 <= 0
 R6: x_3_0 + x_4_0 - 2 y_3_4_0 <= 0
 R7: x_3_1 + x_4_1 - 2 y_3_4_1 <= 0
 R8: x_0_0 + x_3_0 - 2 y_0_3_0 <= 0
 R9: x_0_1 + x_3_1 - 2 y_0_3_1 <= 0
 R10: x_2_0 + x_3_0 - 2 y_2_3_0 <= 0
 R11: x_2_1 + x_3_1 - 2 y_2_3_1 <= 0
 R12: x_1_0 + x_3_0 - 2 y_1_3_0 <= 0
 R13: x_1_1 + x_3_1 - 2 y_1_3_1 <= 0
 R14: 660741 x_0_0 + 50793 x_1_0 + 85643 x_2_0 + 170363 x_3_0
   + 129839 x_4_0 + slack >= 548689.5
 R15: 660741 x_0_1 + 50793 x_1_1 + 85643 x_2_1 + 170363 x_3_1
   + 129839 x_4_1 + slack >= 548689.5
 R16: x_0_0 + x_0_1 = 1
 R17: x_1_0 + x_1_1 = 1
 R18: x_2_0 + x_2_1 = 1
 R19: x_3_0 + x_3_1 = 1
 R20: x_4_0 + x_4_1 = 1
Bounds
Binaries
 x_0_0 x_0_1 x_1_0 x_1_1 x_2_0 x_2_1 x_3_0 x_3_1 x_4_0 x_4_1 y_0_1_0
 y_0_1_1 y_2_4_0 y_2_4_1 y_1_2_0 y_1_2_1 y_3_4_0 y_3_4_1 y_0_3_0 y_0_3_1
 y_2_3_0 y_2_3_1 y_1_3_0 y_1_3_1 x_0_0 x_0_1 x_1_0 x_1_1 x_2_0 x_2_1 x_3_0
 x_3_1 x_4_0 x_4_1 y_0_0_0 y_0_0_1 y_0_1_0 y_0_1_1 y_0_2_0 y_0_2_1 y_0_3_0
 y_0_3_1 y_0_4_0 y_0_4_1 y_1_0_0 y_1_0_1 y_1_1_0 y_1_1_1 y_1_2_0 y_1_2_1
 y_1_3_0 y_1_3_1 y_1_4_0 y_1_4_1 y_2_0_0 y_2_0_1 y_2_1_0 y_2_1_1 y_2_2_0
 y_2_2_1 y_2_3_0 y_2_3_1 y_2_4_0 y_2_4_1 y_3_0_0 y_3_0_1 y_3_1_0 y_3_1_1
 y_3_2_0 y_3_2_1 y_3_3_0 y_3_3_1 y_3_4_0 y_3_4_1 y_4_0_0 y_4_0_1 y_4_1_0
 y_4_1_1 y_4_2_0 y_4_2_1 y_4_3_0 y_4_3_1 y_4_4_0 y_4_4_1 x_0_0 x_0_1 x_1_0
 x_1_1 x_2_0 x_2_1 x_3_0 x_3_1 x_4_0 x_4_1 y_0_1_0 y_0_1_1 y_2_4_0 y_2_4_1
 y_1_2_0 y_1_2_1 y_3_4_0 y_3_4_1 y_0_3_0 y_0_3_1 y_2_3_0 y_2_3_1 y_1_3_0
 y_1_3_1 x_0_0 x_0_1 x_1_0 x_1_1 x_2_0 x_2_1 x_3_0 x_3_1 x_4_0 x_4_1
 y_0_1_0 y_0_1_1 y_2_4_0 y_2_4_1 y_1_2_0 y_1_2_1 y_3_4_0 y_3_4_1 y_0_3_0
 y_0_3_1 y_2_3_0 y_2_3_1 y_1_3_0 y_1_3_1 x_0_0 x_0_1 x_1_0 x_1_1 x_2_0
 x_2_1 x_3_0 x_3_1 x_4_0 x_4_1 y_0_1_0 y_0_1_1 y_2_4_0 y_2_4_1 y_1_2_0
 y_1_2_1 y_3_4_0 y_3_4_1 y_0_3_0 y_0_3_1 y_2_3_0 y_2_3_1 y_1_3_0 y_1_3_1
End
